191	32	4	98	
11	12	8	11

0	0	0	0	0	0	3	1	2	3
1	0	0	0	1	8	1	24
2	0	0	3	0	7	3	6	12	17
3	0	3	0	0	3	1	4
4	7	0	0	0	10	2	5	7
5	0	8	0	0	5	2	8	23
6	0	0	0	3	1	2	10	20
7	0	0	0	3	5	1	21
8	0	0	0	10	10	3	9	13	14
9	0	0	0	10	8	3	10	12	24
10	0	0	8	0	9	3	11	16	19
11	2	0	0	0	7	1	15
12	0	8	0	0	5	2	19	22
13	0	0	0	2	9	1	21
14	7	0	0	0	9	1	28
15	10	0	0	0	9	1	21
16	0	10	0	0	7	1	18
17	0	0	0	2	6	1	19
18	0	0	4	0	1	1	29
19	9	0	0	0	6	3	26	28	29
20	0	5	0	0	10	1	30
21	0	0	3	0	10	1	25
22	0	0	0	8	8	2	25	28
23	0	1	0	0	1	1	25
24	0	3	0	0	7	1	29
25	0	0	0	10	7	1	26
26	0	0	0	6	3	1	27
27	0	0	7	0	8	1	30
28	0	0	5	0	1	1	31
29	0	0	3	0	2	1	31
30	0	0	3	0	9	1	31
31	0	0	0	0	0	0
